
Gurobi 7.0.1 (win64) logging started 12/06/17 15:37:35

Set parameter TimeLimit to value 86400
Set parameter Threads to value 4

Gurobi Optimizer version 7.0.1 build v7.0.1rc0 (win64)
Copyright (c) 2016, Gurobi Optimization, Inc.

Read LP format model from file whity_2team.lp
Reading time = 0.04 seconds
Objective: 4430 rows, 1642 columns, 16848 nonzeros
Optimize a model with 4430 rows, 1642 columns and 16848 nonzeros
Variable types: 36 continuous, 1606 integer (0 binary)
Coefficient statistics:
  Matrix range     [7e-01, 5e+02]
  Objective range  [1e+00, 1e+00]
  Bounds range     [1e+00, 1e+00]
  RHS range        [1e+00, 5e+02]
Presolve removed 2068 rows and 392 columns
Presolve time: 0.09s
Presolved: 2362 rows, 1250 columns, 9360 nonzeros
Variable types: 18 continuous, 1232 integer (1232 binary)
Found heuristic solution: objective 121.1212121

Root relaxation: objective 0.000000e+00, 546 iterations, 0.02 seconds

    Nodes    |    Current Node    |     Objective Bounds      |     Work
 Expl Unexpl |  Obj  Depth IntInf | Incumbent    BestBd   Gap | It/Node Time

     0     0    0.00000    0   35  121.12121    0.00000   100%     -    0s
H    0     0                     120.2727273    0.00000   100%     -    0s
H    0     0                     110.4242424    0.00000   100%     -    0s
H    0     0                     110.3636364    0.00000   100%     -    0s
H    0     0                      81.5757576    0.00000   100%     -    0s
     0     0    0.00000    0   90   81.57576    0.00000   100%     -    0s
     0     0    0.00000    0   87   81.57576    0.00000   100%     -    0s
     0     0    0.00000    0  101   81.57576    0.00000   100%     -    0s
H    0     0                      80.1818182    0.00000   100%     -    0s
H    0     0                      67.4242424    0.00000   100%     -    0s
H    0     0                      66.4242424    0.00000   100%     -    0s
H    0     0                      60.0606061    0.00000   100%     -    0s
     0     0    5.96791    0   51   60.06061    5.96791  90.1%     -    0s
H    0     0                      57.4848485    5.96791  89.6%     -    0s
     0     0    8.22062    0   52   57.48485    8.22062  85.7%     -    0s
     0     0   13.00000    0   77   57.48485   13.00000  77.4%     -    0s
H    0     0                      56.4848485   13.00000  77.0%     -    0s
     0     0   13.18421    0   83   56.48485   13.18421  76.7%     -    0s
     0     0   16.00000    0   99   56.48485   16.00000  71.7%     -    0s
     0     0   16.03739    0   97   56.48485   16.03739  71.6%     -    1s
H    0     0                      53.1515152   16.03739  69.8%     -    1s
     0     0   17.12520    0   92   53.15152   17.12520  67.8%     -    1s
     0     0   17.39731    0   83   53.15152   17.39731  67.3%     -    1s
     0     0   17.50860    0   77   53.15152   17.50860  67.1%     -    1s
     0     0   17.54034    0   75   53.15152   17.54034  67.0%     -    1s
     0     0   17.55913    0   80   53.15152   17.55913  67.0%     -    1s
     0     0   17.57460    0   88   53.15152   17.57460  66.9%     -    1s
     0     0   17.57460    0   84   53.15152   17.57460  66.9%     -    1s
     0     0   17.58559    0   73   53.15152   17.58559  66.9%     -    1s
     0     0   17.58607    0   80   53.15152   17.58607  66.9%     -    1s
     0     0   17.59552    0   72   53.15152   17.59552  66.9%     -    1s
     0     0   17.59565    0   86   53.15152   17.59565  66.9%     -    1s
     0     0   17.62298    0   64   53.15152   17.62298  66.8%     -    1s
     0     0   17.62298    0   64   53.15152   17.62298  66.8%     -    1s
     0     0   17.65309    0   70   53.15152   17.65309  66.8%     -    1s
H    0     0                      52.8484848   17.65309  66.6%     -    2s
     0     0   17.65332    0   67   52.84848   17.65332  66.6%     -    2s
     0     0   17.66533    0   68   52.84848   17.66533  66.6%     -    2s
     0     0   17.66533    0   68   52.84848   17.66533  66.6%     -    2s
     0     0   17.66680    0   75   52.84848   17.66680  66.6%     -    2s
     0     0   17.66680    0   75   52.84848   17.66680  66.6%     -    2s
     0     0   17.71676    0   77   52.84848   17.71676  66.5%     -    2s
     0     0   17.80940    0   67   52.84848   17.80940  66.3%     -    2s
H    0     0                      52.7272727   17.80940  66.2%     -    2s
     0     0   17.84760    0   80   52.72727   17.84760  66.2%     -    2s
     0     0   17.85298    0   78   52.72727   17.85298  66.1%     -    2s
     0     0   17.86671    0   78   52.72727   17.86671  66.1%     -    2s
     0     0   17.86671    0   78   52.72727   17.86671  66.1%     -    2s
     0     0   17.88879    0   70   52.72727   17.88879  66.1%     -    2s
     0     0   18.30058    0   71   52.72727   18.30058  65.3%     -    2s
     0     0   18.31160    0   79   52.72727   18.31160  65.3%     -    2s
     0     0   18.82429    0   80   52.72727   18.82429  64.3%     -    2s
     0     0   19.07984    0   78   52.72727   19.07984  63.8%     -    2s
     0     0   19.09928    0   70   52.72727   19.09928  63.8%     -    2s
     0     0   19.29244    0   74   52.72727   19.29244  63.4%     -    2s
     0     0   19.29765    0   73   52.72727   19.29765  63.4%     -    2s
     0     0   19.29776    0   75   52.72727   19.29776  63.4%     -    2s
     0     0   19.29776    0   73   52.72727   19.29776  63.4%     -    2s
     0     0   19.29776    0   65   52.72727   19.29776  63.4%     -    2s
     0     0   19.29776    0   73   52.72727   19.29776  63.4%     -    2s
     0     0   19.29776    0   61   52.72727   19.29776  63.4%     -    2s
     0     0   19.29776    0   71   52.72727   19.29776  63.4%     -    2s
     0     0   19.29776    0   61   52.72727   19.29776  63.4%     -    2s
     0     0   19.29776    0   61   52.72727   19.29776  63.4%     -    2s
     0     2   19.29776    0   54   52.72727   19.29776  63.4%     -    3s
H   33    34                      48.7272727   24.66667  49.4%   161    3s
H   34    36                      47.0303030   24.66667  47.6%   160    3s
H   66    62                      44.5454545   24.66667  44.6%   118    3s
H  156   124                      44.3030303   24.66667  44.3%  91.3    3s
   773   373     cutoff   21        44.30303   25.24242  43.0%  82.8    5s
* 1395   568              18      43.9090909   25.25275  42.5%  70.6    5s
H 2147   764                      41.6666667   25.50309  38.8%  62.3    7s
  2160   773   25.66031   28   76   41.66667   25.50309  38.8%  62.0   10s
H 2180   749                      41.1818182   25.50309  38.1%  82.8   13s
  2207   753   25.50309   21   50   41.18182   25.50309  38.1%  83.8   15s
  3766   935   27.73120   34   55   41.18182   25.50309  38.1%  84.8   20s
  6450  1419   33.99880   45   39   41.18182   26.45347  35.8%  75.2   25s
  9183  2120     cutoff   45        41.18182   27.75010  32.6%  73.4   30s
*11504  2754              43      39.4545455   28.41831  28.0%  70.2   33s
 12712  2883   38.20418   63   45   39.45455   28.98399  26.5%  69.4   35s
 15377  2956   37.11189   52   53   39.45455   30.26034  23.3%  70.0   40s
 18439  3034   34.06571   34   43   39.45455   31.33700  20.6%  70.2   45s
 20919  2846   32.39011   46   30   39.45455   32.30774  18.1%  70.4   50s
 23534  2546     cutoff   38        39.45455   33.39254  15.4%  70.5   55s
 25996  2146     cutoff   47        39.45455   34.48485  12.6%  69.0   60s
 29168  1008     cutoff   33        39.45455   36.42070  7.69%  67.8   65s

Cutting planes:
  Gomory: 18
  Cover: 1
  Implied bound: 111
  MIR: 91
  Flow cover: 43
  Inf proof: 5
  Zero half: 34

Explored 30894 nodes (2077963 simplex iterations) in 67.11 seconds
Thread count was 4 (of 20 available processors)

Solution count 10: 39.4545 41.1818 41.6667 ... 52.8485
Pool objective bound 39.4545

Optimal solution found (tolerance 1.00e-04)
Best objective 3.945454545455e+01, best bound 3.945454545455e+01, gap 0.0000%

Wrote result file 'whity_2team.sol'

